10 10 10
50
8 2 8
1 6 6
9 4 8
10 8 9
1 10 8
4 1 3
6 7 4
7 5 9
6 1 10
10 5 3
9 4 1
10 10 10
5 1 10
8 1 2
8 7 4
6 9 2
3 1 4
3 4 8
10 4 6
4 9 3
2 9 6
2 6 6
7 5 6
8 3 7
8 1 9
7 2 3
7 2 9
2 2 10
2 10 8
3 3 5
7 3 4
9 8 9
5 5 4
6 7 7
10 5 5
9 10 3
1 8 10
10 9 1
1 4 8
2 2 9
5 8 7
2 10 6
3 10 6
9 8 1
9 3 7
4 2 3
2 6 4
9 8 7
2 5 5
8 8 1
